CP/model.dzn
include "globals.mzn";

% number of couriers
int: num_couriers;
% number of items
int: num_items;

% couriers load size 
set of int: COURIERS = 1..num_couriers;
set of int: ITEMS = 1..num_items;
set of int: NODES = 1..num_items + 1;
int: default_val=num_items + 1;

% items size 
array[COURIERS] of int: courier_sizes;
array[ITEMS] of int: item_sizes;
array[NODES, NODES] of int: distances;

int:lower_bound;
int:upper_bound;

% items delivered by each courier
array[COURIERS, 1..num_items+2] of var NODES: stops;
array[ITEMS] of var COURIERS:item_responsability; % wich courier delivers item k
var lower_bound..upper_bound:longest_trip;
array[COURIERS] of var 0..upper_bound:distances_traveled;

% constraints for the decision variable 

% capacity constraint. It also ensures uniqueness of the items delivered
constraint bin_packing_capa(courier_sizes,item_responsability,item_sizes);

% couriers have to start and end in default_val
constraint forall(i in COURIERS)(
    stops[i,1]=default_val
);
constraint forall(i in COURIERS)(
    stops[i,num_items+2]=default_val
);

% each courier delivers something
constraint forall(c in COURIERS)(
  member(item_responsability,c)
);
%  ^
%  |    analogico
%  v
% first stop must be a deliver
constraint forall(c in COURIERS)(
  stops[c,2]!=default_val
);

% gli item devono apparire in stops
constraint forall(i in ITEMS)(
  count(stops,i,1)
);
%  ^
%  |    analogico
%  v

 
% padding of the stops
% count(item_responsability,c) -->numero di item che devono stare sulla riga
constraint forall(c in COURIERS)(
  forall(i in ITEMS)(
    if i<=count(item_responsability,c) then
    stops[c,i+1]!=default_val else
    stops[c,i+1]=default_val endif
));

constraint forall(c in COURIERS,i in ITEMS)(
  if item_responsability[i]==c then
  member(row(stops,c),i) endif
);


% Compute total distance
constraint forall(c in COURIERS)(
  distances_traveled[c] = sum(j in NODES)(distances[stops[c,j], stops[c,j+1]])
);


% minimize the optimization variable
constraint longest_trip= max(distances_traveled);
solve :: seq_search([
  int_search(stops,first_fail, indomain_random),
  int_search(item_responsability,first_fail, indomain_random),
  int_search([longest_trip],first_fail, indomain_min)
])minimize(longest_trip);

